Ca8 V12 P18 O72
1.0
8.728800 0.000000 0.000000
-4.364400 7.559363 0.000000
0.000000 0.000000 21.804200
Ca V P O
8 12 18 72
direct
0.333333 0.666667 0.166700 Ca
0.666667 0.333333 0.333300 Ca
0.333333 0.666667 0.666633 Ca
0.666667 0.333333 0.833367 Ca
0.000000 0.000000 0.999967 Ca
0.032740 0.699407 0.083300 Ca
0.366073 0.366073 0.750033 Ca
0.633927 0.633927 0.250033 Ca
0.666667 0.333333 0.480502 V
0.000000 0.000000 0.352831 V
0.333333 0.666667 0.019498 V
0.333333 0.666667 0.813835 V
0.666667 0.333333 0.686165 V
0.000000 0.000000 0.147169 V
0.666667 0.333333 0.980502 V
0.333333 0.666667 0.519498 V
0.333333 0.666667 0.313835 V
0.000000 0.000000 0.852831 V
0.000000 0.000000 0.647169 V
0.666667 0.333333 0.186165 V
0.957270 0.333333 0.083300 P
0.666667 0.623937 0.083300 P
0.376063 0.042730 0.083300 P
0.333333 0.957270 0.416700 P
0.623937 0.666667 0.416700 P
0.042730 0.376063 0.416700 P
0.000000 0.290603 0.750033 P
0.290603 0.000000 0.750033 P
0.709397 0.709397 0.750033 P
0.042730 0.666667 0.916700 P
0.333333 0.376063 0.916700 P
0.623937 0.957270 0.916700 P
0.666667 0.042730 0.583300 P
0.376063 0.333333 0.583300 P
0.957270 0.623937 0.583300 P
0.709397 0.000000 0.250033 P
0.000000 0.709397 0.250033 P
0.290603 0.290603 0.250033 P
0.141930 0.497650 0.077620 O
0.502350 0.644280 0.077620 O
0.355720 0.858070 0.077620 O
0.497650 0.141930 0.422380 O
0.644280 0.502350 0.422380 O
0.858070 0.355720 0.422380 O
0.808597 0.830983 0.410953 O
0.169017 0.977613 0.410953 O
0.022387 0.191403 0.410953 O
0.164317 0.475263 0.755713 O
0.310947 0.835683 0.755713 O
0.524737 0.689053 0.755713 O
0.475263 0.164317 0.744287 O
0.835683 0.310947 0.744287 O
0.689053 0.524737 0.744287 O
0.830983 0.808597 0.089047 O
0.977613 0.169017 0.089047 O
0.191403 0.022387 0.089047 O
0.858070 0.502350 0.922380 O
0.497650 0.355720 0.922380 O
0.644280 0.141930 0.922380 O
0.502350 0.858070 0.577620 O
0.355720 0.497650 0.577620 O
0.141930 0.644280 0.577620 O
0.524737 0.835683 0.255713 O
0.164317 0.689053 0.255713 O
0.310947 0.475263 0.255713 O
0.169017 0.191403 0.910953 O
0.022387 0.830983 0.910953 O
0.808597 0.977613 0.910953 O
0.191403 0.169017 0.589047 O
0.830983 0.022387 0.589047 O
0.977613 0.808597 0.589047 O
0.835683 0.524737 0.244287 O
0.689053 0.164317 0.244287 O
0.475263 0.310947 0.244287 O
0.540470 0.844800 0.973570 O
0.155200 0.695670 0.973570 O
0.304330 0.459530 0.973570 O
0.844800 0.540470 0.526430 O
0.695670 0.155200 0.526430 O
0.459530 0.304330 0.526430 O
0.207137 0.178133 0.306903 O
0.821867 0.029003 0.306903 O
0.970997 0.792863 0.306903 O
0.511467 0.873803 0.859763 O
0.362337 0.488533 0.859763 O
0.126197 0.637663 0.859763 O
0.873803 0.511467 0.640237 O
0.488533 0.362337 0.640237 O
0.637663 0.126197 0.640237 O
0.178133 0.207137 0.193097 O
0.029003 0.821867 0.193097 O
0.792863 0.970997 0.193097 O
0.459530 0.155200 0.026430 O
0.844800 0.304330 0.026430 O
0.695670 0.540470 0.026430 O
0.155200 0.459530 0.473570 O
0.304330 0.844800 0.473570 O
0.540470 0.695670 0.473570 O
0.126197 0.488533 0.359763 O
0.511467 0.637663 0.359763 O
0.362337 0.873803 0.359763 O
0.821867 0.792863 0.806903 O
0.970997 0.178133 0.806903 O
0.207137 0.029003 0.806903 O
0.792863 0.821867 0.693097 O
0.178133 0.970997 0.693097 O
0.029003 0.207137 0.693097 O
0.488533 0.126197 0.140237 O
0.637663 0.511467 0.140237 O
0.873803 0.362337 0.140237 O
