IBRION = 2
NSW = 300
NELM = 200
GGA = PE
EDIFF = 0.0001
ISMEAR = 0
SIGMA = 0.01
ENCUT = 400
PREC = Accurate
LORBIT = 11
LASPH = TRUE
ISIF = 3
ISYM = 0
NPAR = 16
ISPIN = 2
MAGMOM = 6*0 3*0 12*5 18*0 72*0
EDIFFG = -0.05
LDAU = TRUE
LDAUTYPE = 2
LDAUPRINT = 1
LDAUJ = 0 0 0 0 0
LDAUL = 0 0 2 0 0
LDAUU = 0 0 3.25 0 0
AMIX = 0.1
BMIX = 0.01
